sat
(:max-memory         17.95
 :memory             17.95
 :nlsat-propagations 10
 :nlsat-stages       4
 :num-allocs         18316
 :rlimit-count       2159
 :time               0.00
 :total-time         0.01)
